100
100
3000 3000 3000 3000 3000 3000 3000 3000 3000 3000 3000 3000 3000 3000 3000 3000 3000 3000 3000 3000 3000 3000 3000 3000 3000 3000 3000 3000 3000 3000 3000 3000 3000 3000 3000 3000 3000 3000 3000 3000 3000 3000 3000 3000 3000 3000 3000 3000 3000 3000 3000 3000 3000 3000 3000 3000 3000 3000 3000 3000 3000 3000 3000 3000 3000 3000 3000 3000 3000 3000 3000 3000 3000 3000 3000 3000 3000 3000 3000 3000 3000 3000 3000 3000 3000 3000 3000 3000 3000 3000 3000 3000 3000 3000 3000 3000 3000 3000 3000 3000
0 13 2
0 43 3
0 67 0
0 90 2
0 94 0
0 95 0
0 96 4
0 97 3
0 98 3
0 99 1
1 4 3
1 6 2
1 28 3
1 36 4
1 56 2
1 72 2
1 75 0
1 77 2
1 88 4
1 94 0
2 28 4
2 39 1
2 43 0
2 58 3
2 60 0
2 62 1
2 79 3
2 86 2
2 88 4
2 89 3
3 15 4
3 18 2
3 23 3
3 26 4
3 32 4
3 47 4
3 49 2
3 71 0
3 87 2
3 91 1
4 22 2
4 30 4
4 34 0
4 46 3
4 51 0
4 53 3
4 56 0
4 73 4
4 84 4
4 89 3
5 2 2
5 22 0
5 25 4
5 37 3
5 55 4
5 58 4
5 68 2
5 78 4
5 89 3
5 90 4
6 28 0
6 30 2
6 38 0
6 50 3
6 55 0
6 58 4
6 63 3
6 72 3
6 81 4
6 85 4
7 23 1
7 35 2
7 39 1
7 41 2
7 51 4
7 55 3
7 61 2
7 71 4
7 77 0
7 81 4
8 25 1
8 27 3
8 45 2
8 52 0
8 76 3
8 85 3
8 87 1
8 90 4
8 91 4
8 93 3
9 1 3
9 16 3
9 26 4
9 30 4
9 44 0
9 65 2
9 82 1
9 86 4
9 88 1
9 90 1
10 1 0
10 7 2
10 11 3
10 19 3
10 22 1
10 25 0
10 27 3
10 39 1
10 40 0
10 44 3
11 19 3
11 62 0
11 65 2
11 78 4
11 85 3
11 86 2
11 89 4
11 94 3
11 96 0
11 97 2
12 8 4
12 18 2
12 22 4
12 26 2
12 32 3
12 47 0
12 60 2
12 65 4
12 67 2
12 72 1
13 1 2
13 4 4
13 6 0
13 9 2
13 20 1
13 33 3
13 38 4
13 61 2
13 68 2
13 78 4
14 8 2
14 53 0
14 66 2
14 88 0
14 94 4
14 95 3
14 96 4
14 97 0
14 98 4
14 99 0
15 11 2
15 14 1
15 24 3
15 45 2
15 75 1
15 79 2
15 80 2
15 81 1
15 82 0
15 89 3
16 24 1
16 46 0
16 78 2
16 86 4
16 91 2
16 94 4
16 96 1
16 97 2
16 98 1
16 99 0
17 2 2
17 6 0
17 7 4
17 17 4
17 18 4
17 26 4
17 40 1
17 48 0
17 50 2
17 63 1
18 8 0
18 14 1
18 30 0
18 32 0
18 33 1
18 41 3
18 52 1
18 59 3
18 67 2
18 74 1
19 2 0
19 11 1
19 41 1
19 45 1
19 52 0
19 53 0
19 55 4
19 86 4
19 90 3
19 96 4
20 0 2
20 18 1
20 34 1
20 47 0
20 52 3
20 56 2
20 61 4
20 64 3
20 67 0
20 80 1
21 31 2
21 44 2
21 45 1
21 51 4
21 53 3
21 62 1
21 66 1
21 68 0
21 70 1
21 93 0
22 5 0
22 11 3
22 16 0
22 21 2
22 24 4
22 39 2
22 64 2
22 68 3
22 76 1
22 80 4
23 4 0
23 6 0
23 14 0
23 18 0
23 41 3
23 42 3
23 65 2
23 69 4
23 82 1
23 84 4
24 3 3
24 8 4
24 16 1
24 19 3
24 44 2
24 51 3
24 60 1
24 71 3
24 81 2
24 83 0
25 1 0
25 40 3
25 44 0
25 49 1
25 59 0
25 67 2
25 83 2
25 92 2
25 94 0
25 96 0
26 3 4
26 4 4
26 5 4
26 10 2
26 11 3
26 12 2
26 27 3
26 30 3
26 61 2
26 83 1
27 4 3
27 30 3
27 31 1
27 36 3
27 84 0
27 85 2
27 93 1
27 96 0
27 98 0
27 99 1
28 41 3
28 42 3
28 49 4
28 52 0
28 71 1
28 80 0
28 90 4
28 92 3
28 95 0
28 97 1
29 17 0
29 20 0
29 29 4
29 32 3
29 33 1
29 42 2
29 54 3
29 62 0
29 75 0
29 92 1
30 0 1
30 2 3
30 21 2
30 34 4
30 36 0
30 37 3
30 47 4
30 49 1
30 74 3
30 76 2
31 5 1
31 7 1
31 19 2
31 20 0
31 22 1
31 46 2
31 57 2
31 61 0
31 67 1
31 85 3
32 10 2
32 13 0
32 14 2
32 35 0
32 37 1
32 44 3
32 48 4
32 74 2
32 75 3
32 78 4
33 5 4
33 19 1
33 23 0
33 29 0
33 47 3
33 50 2
33 58 1
33 63 1
33 69 3
33 73 3
34 1 2
34 6 2
34 8 0
34 21 2
34 26 0
34 39 0
34 42 4
34 54 4
34 64 2
34 68 0
35 6 2
35 15 1
35 16 2
35 21 2
35 33 2
35 44 3
35 47 1
35 82 4
35 91 1
35 92 4
36 9 0
36 16 3
36 17 2
36 52 3
36 70 4
36 71 1
36 87 0
36 94 4
36 95 3
36 97 4
37 3 3
37 10 4
37 15 3
37 16 4
37 34 1
37 37 4
37 38 4
37 48 3
37 55 3
37 63 1
38 12 1
38 19 3
38 31 2
38 51 1
38 54 0
38 56 3
38 74 2
38 75 4
38 76 4
38 79 2
39 1 4
39 6 4
39 7 4
39 15 1
39 21 1
39 23 4
39 37 4
39 47 3
39 48 0
39 57 1
40 16 0
40 20 0
40 28 2
40 44 1
40 49 3
40 50 1
40 55 4
40 57 1
40 59 3
40 64 0
41 3 2
41 16 2
41 17 0
41 42 0
41 43 2
41 73 0
41 81 2
41 84 0
41 87 2
41 92 1
42 8 2
42 24 0
42 43 0
42 55 3
42 65 3
42 67 4
42 77 4
42 78 0
42 84 2
42 93 1
43 17 2
43 23 2
43 27 3
43 29 4
43 61 2
43 65 4
43 69 0
43 74 0
43 82 3
43 85 3
44 25 0
44 40 1
44 46 2
44 48 2
44 53 0
44 54 4
44 57 0
44 63 0
44 70 4
44 80 2
45 13 1
45 15 4
45 28 0
45 35 2
45 43 2
45 52 0
45 53 2
45 59 3
45 61 1
45 74 0
46 21 3
46 25 1
46 30 4
46 31 4
46 35 2
46 37 1
46 45 2
46 78 4
46 87 2
46 90 2
47 9 0
47 12 4
47 14 0
47 21 1
47 47 3
47 56 0
47 63 2
47 65 3
47 70 3
47 72 4
48 4 3
48 13 2
48 38 1
48 43 2
48 48 4
48 57 0
48 58 4
48 65 1
48 83 0
48 84 0
49 0 0
49 2 3
49 4 4
49 14 3
49 28 0
49 54 1
49 58 1
49 69 3
49 86 2
49 92 4
50 7 1
50 24 0
50 42 2
50 46 3
50 78 1
50 83 3
50 91 2
50 93 3
50 94 3
50 99 4
51 7 0
51 26 1
51 28 0
51 34 0
51 47 1
51 77 0
51 80 3
51 81 3
51 84 3
51 92 4
52 5 4
52 8 4
52 14 1
52 58 0
52 64 4
52 72 2
52 91 1
52 97 2
52 98 0
52 99 2
53 2 4
53 12 3
53 27 4
53 51 0
53 62 1
53 73 1
53 86 0
53 88 2
53 95 1
53 99 2
54 43 1
54 57 3
54 67 4
54 71 3
54 72 3
54 85 2
54 91 3
54 95 2
54 96 2
54 99 4
55 33 1
55 36 2
55 38 4
55 41 0
55 47 2
55 54 2
55 56 2
55 66 4
55 82 2
55 83 1
56 10 1
56 19 4
56 21 0
56 25 4
56 26 4
56 29 2
56 57 0
56 59 1
56 62 2
56 83 3
57 3 0
57 17 1
57 24 2
57 44 3
57 60 4
57 68 4
57 73 2
57 79 1
57 80 2
57 84 1
58 9 4
58 20 1
58 22 4
58 70 4
58 76 1
58 77 3
58 79 4
58 85 1
58 89 2
58 91 1
59 0 1
59 2 0
59 15 1
59 27 0
59 30 4
59 34 1
59 36 2
59 40 1
59 52 0
59 57 4
60 2 2
60 22 1
60 28 4
60 49 3
60 70 3
60 73 2
60 74 4
60 86 2
60 88 4
60 92 0
61 16 0
61 17 0
61 27 3
61 31 0
61 33 0
61 40 3
61 45 1
61 50 4
61 54 3
61 63 1
62 0 2
62 12 2
62 21 4
62 27 0
62 29 4
62 50 2
62 61 3
62 62 2
62 76 0
62 86 2
63 0 2
63 5 3
63 9 2
63 13 2
63 22 3
63 37 3
63 40 2
63 60 1
63 69 1
63 72 3
64 1 4
64 3 3
64 4 3
64 10 3
64 31 0
64 52 2
64 73 4
64 79 4
64 81 1
64 88 3
65 0 2
65 18 1
65 27 0
65 46 1
65 48 1
65 66 4
65 77 2
65 79 3
65 82 1
65 88 3
66 9 0
66 32 2
66 56 0
66 74 2
66 86 1
66 88 1
66 91 4
66 93 1
66 98 2
66 99 4
67 0 3
67 31 2
67 46 4
67 58 1
67 63 3
67 70 0
67 74 1
67 77 4
67 83 1
67 87 1
68 3 4
68 8 3
68 13 3
68 36 4
68 40 2
68 51 2
68 59 0
68 75 3
68 80 4
68 85 2
69 1 2
69 17 0
69 25 3
69 41 4
69 80 0
69 82 0
69 89 4
69 93 2
69 95 3
69 97 0
70 6 0
70 7 0
70 20 0
70 38 1
70 64 1
70 65 0
70 77 1
70 82 4
70 83 2
70 90 4
71 5 0
71 7 1
71 11 1
71 24 0
71 35 3
71 50 3
71 53 1
71 54 2
71 74 0
71 76 0
72 4 0
72 20 4
72 23 4
72 46 4
72 55 1
72 57 3
72 65 0
72 69 0
72 76 2
72 82 1
73 7 4
73 25 4
73 29 4
73 35 2
73 37 2
73 43 1
73 56 0
73 62 3
73 71 4
73 79 2
74 3 4
74 12 4
74 22 0
74 31 1
74 42 2
74 50 2
74 57 2
74 59 3
74 62 2
74 64 0
75 0 0
75 8 4
75 13 4
75 24 2
75 26 3
75 37 4
75 42 3
75 50 4
75 70 0
75 75 1
76 15 2
76 39 1
76 64 0
76 77 3
76 79 4
76 81 2
76 90 1
76 93 4
76 94 2
76 95 2
77 7 2
77 8 2
77 12 1
77 15 0
77 34 0
77 41 3
77 55 0
77 61 4
77 66 0
77 71 2
78 5 0
78 18 2
78 29 1
78 32 0
78 36 4
78 54 2
78 81 2
78 89 2
78 91 4
78 98 4
79 4 0
79 13 2
79 24 3
79 29 2
79 45 0
79 66 3
79 84 4
79 87 3
79 90 2
79 97 3
80 11 4
80 20 1
80 33 4
80 35 2
80 39 3
80 48 4
80 55 4
80 66 0
80 68 3
80 69 1
81 0 4
81 18 4
81 32 1
81 41 0
81 42 0
81 64 2
81 69 0
81 75 1
81 78 1
81 84 1
82 9 3
82 10 0
82 19 0
82 87 3
82 94 2
82 95 3
82 96 1
82 97 1
82 98 0
82 99 0
83 1 3
83 5 2
83 13 4
83 19 4
83 36 3
83 53 0
83 60 2
83 66 2
83 69 3
83 71 4
84 1 2
84 6 2
84 9 3
84 15 3
84 49 4
84 54 0
84 60 0
84 62 0
84 64 1
84 67 0
85 3 3
85 9 4
85 10 3
85 14 2
85 41 3
85 51 1
85 56 2
85 72 2
85 75 3
85 76 4
86 3 2
86 48 0
86 50 1
86 53 2
86 60 1
86 71 4
86 81 3
86 83 4
86 87 1
86 88 2
87 9 0
87 18 3
87 34 2
87 36 0
87 38 0
87 49 3
87 58 3
87 59 0
87 60 4
87 73 0
88 11 0
88 29 3
88 32 1
88 38 0
88 44 3
88 45 0
88 56 3
88 60 0
88 63 1
88 69 2
89 2 0
89 10 3
89 22 1
89 23 0
89 33 3
89 43 4
89 52 0
89 66 4
89 68 1
89 72 4
90 14 1
90 20 2
90 23 0
90 33 0
90 34 0
90 39 2
90 49 4
90 59 0
90 61 3
90 72 0
91 11 1
91 14 2
91 16 3
91 20 2
91 23 0
91 25 2
91 26 1
91 39 1
91 43 3
91 51 4
92 11 3
92 26 4
92 40 3
92 53 0
92 59 4
92 67 3
92 70 2
92 75 1
92 85 4
92 89 2
93 12 2
93 15 3
93 17 2
93 29 1
93 30 0
93 31 0
93 32 0
93 34 4
93 37 1
93 40 4
94 13 0
94 35 4
94 42 3
94 73 0
94 76 0
94 80 0
94 87 0
94 92 1
94 95 3
94 98 2
95 24 1
95 33 2
95 35 4
95 38 3
95 45 2
95 51 3
95 92 3
95 93 1
95 96 2
95 98 1
96 10 2
96 31 3
96 46 1
96 49 0
96 68 1
96 77 4
96 78 3
96 79 3
96 89 1
96 93 2
97 6 2
97 12 3
97 17 4
97 19 1
97 23 1
97 30 4
97 36 4
97 39 4
97 46 1
97 48 4
98 12 4
98 18 1
98 28 2
98 32 1
98 35 0
98 45 2
98 58 4
98 63 0
98 70 4
98 73 3
99 2 2
99 5 2
99 10 0
99 21 4
99 25 0
99 27 4
99 28 4
99 38 0
99 66 1
99 68 3
